set VV := 0 1 2 3 4 5 6 7 8 9 10 11 12 13 14 15 16 17 18 19 20 21 22 23 24 25 26 27 28 29 30 31 32 33 34 35 36 37 38 39 40 41 42 43 ;
set VS := 0 1 2 3 4 5 6 7 8 9 10 11 12 13 14 15 16 17 18 19 20 21 22 23 24 25 26 27 28 29 30 31 32 33 34 35 36 37 38 39 40 41 42 43 44 45 46 47 48 49 50 51 52 53 54 55 56 57 58 59 60 61 62 63 64 65 66 67 68 69 70 71 72 73 74 75 76 77 78 79 80 81 82 83 84 85 86 87 88 89 90 91 ;
param cv := 
0 10
1 22
2 15
3 14
4 23
5 17
6 16
7 13
8 18
9 12
10 17
11 19
12 23
13 19
14 23
15 13
16 18
17 25
18 25
19 20
20 11
21 15
22 19
23 25
24 20
25 13
26 11
27 18
28 16
29 15
30 20
31 12
32 22
33 24
34 13
35 21
36 12
37 14
38 16
39 15
40 17
41 21
42 25
43 14
;
param cs := 
0 37
1 32
2 35
3 27
4 22
5 24
6 39
7 27
8 28
9 23
10 31
11 34
12 37
13 34
14 40
15 35
16 22
17 25
18 34
19 38
20 20
21 29
22 37
23 26
24 39
25 34
26 25
27 28
28 34
29 23
30 25
31 26
32 29
33 40
34 22
35 30
36 36
37 35
38 34
39 39
40 28
41 26
42 38
43 26
44 35
45 34
46 28
47 25
48 24
49 22
50 32
51 32
52 30
53 25
54 33
55 23
56 31
57 23
58 29
59 33
60 36
61 30
62 32
63 29
64 20
65 36
66 22
67 24
68 28
69 27
70 34
71 22
72 25
73 36
74 29
75 26
76 40
77 40
78 34
79 36
80 21
81 35
82 33
83 33
84 22
85 39
86 25
87 24
88 38
89 23
90 32
91 25
;
param bv:	 0 1 2 3 4 5 6 7 8 9 10 11 12 13 14 15 16 17 18 19 20 21 22 23 24 25 26 27 28 29 30 31 32 33 34 35 36 37 38 39 40 41 42 43 := 
		0 0 0 0 0 0 0 0 10 0 0 0 0 0 0 0 0 0 17 0 0 17 0 0 0 0 0 0 0 0 0 0 0 0 0 0 0 0 0 0 0 0 23 0 0 
		1 0 0 0 0 0 0 0 0 0 0 0 25 0 0 0 0 0 0 0 0 0 0 0 0 0 0 0 0 0 0 0 0 0 24 0 0 0 0 0 0 0 0 0 0 
		2 0 0 0 0 0 0 0 0 0 0 0 0 0 0 0 0 0 0 0 25 0 0 0 0 0 0 11 0 0 0 0 0 0 0 0 0 0 0 0 14 0 0 0 0 
		3 0 0 0 0 0 0 0 0 0 0 0 0 0 0 0 0 0 0 11 0 0 0 0 0 0 0 0 17 0 0 0 0 0 0 0 0 0 0 0 0 0 0 0 0 
		4 0 0 0 0 0 0 0 0 0 0 0 0 0 0 0 0 0 0 0 22 0 0 0 0 0 13 0 0 0 0 0 0 0 0 0 0 0 0 0 0 11 0 0 0 
		5 0 0 0 0 0 0 0 0 0 0 0 0 13 0 0 0 24 0 0 0 0 0 0 0 0 0 0 0 0 0 0 0 0 16 0 0 0 0 0 0 0 0 0 0 
		6 0 0 0 0 0 0 0 0 0 24 0 0 0 0 0 0 0 0 0 0 0 0 0 0 0 0 0 0 0 0 0 0 0 0 0 0 0 0 0 0 0 0 17 0 
		7 0 0 0 0 0 0 0 0 0 21 0 0 0 0 0 0 0 0 0 0 0 0 0 0 0 0 0 0 0 0 0 0 0 0 0 0 0 24 0 0 0 0 0 0 
		8 0 0 0 0 0 0 0 0 0 0 0 0 0 0 0 0 0 0 19 11 0 14 0 0 0 0 10 0 0 0 0 0 0 0 0 0 0 0 0 0 0 0 0 0 
		9 0 0 0 0 0 0 0 0 0 0 0 15 0 0 0 0 23 0 0 0 0 0 0 0 0 0 0 0 0 0 0 21 0 0 0 0 0 0 0 0 13 25 0 0 
		10 0 0 0 0 0 0 0 0 0 0 0 0 0 0 16 0 0 0 0 23 0 0 0 0 0 0 0 0 0 0 0 0 0 0 0 0 0 0 25 0 0 0 0 0 
		11 0 0 0 0 0 0 0 0 0 0 0 0 0 0 0 0 0 0 0 0 0 10 0 0 0 0 0 0 0 0 0 0 0 0 0 0 18 14 0 0 0 0 0 0 
		12 0 0 0 0 0 0 0 0 0 0 0 0 0 19 0 0 0 0 0 0 25 0 0 0 0 0 0 0 25 0 0 0 0 0 0 0 0 0 0 0 0 0 0 0 
		13 0 0 0 0 0 0 0 0 0 0 0 0 0 0 0 0 0 20 0 20 0 0 0 0 0 11 0 0 0 0 0 0 0 0 21 0 0 0 0 0 0 0 0 0 
		14 0 0 0 0 0 0 0 0 0 0 0 0 0 0 0 0 0 0 0 0 0 23 0 0 0 0 17 0 11 0 0 0 18 0 0 0 0 17 0 0 0 14 0 0 
		15 0 0 0 0 0 0 0 0 0 0 0 0 0 0 0 0 20 0 0 0 0 0 0 0 0 0 0 0 0 0 0 0 17 0 0 0 0 0 0 0 0 0 0 0 
		16 0 0 0 0 0 0 0 0 0 0 0 0 0 0 0 0 0 0 0 0 16 14 0 0 0 0 0 0 0 19 0 0 0 0 0 15 0 0 0 0 0 17 0 0 
		17 0 0 0 0 0 0 0 0 0 0 0 0 0 0 0 0 0 0 0 0 0 0 0 0 0 24 0 0 0 0 17 0 0 0 0 0 0 0 0 11 0 0 21 0 
		18 0 0 0 0 0 0 0 0 0 0 0 0 0 0 0 0 0 0 0 0 0 0 21 0 23 0 0 0 0 0 0 19 0 0 0 0 0 0 0 0 0 19 0 0 
		19 0 0 0 0 0 0 0 0 0 0 0 0 0 0 0 0 0 0 0 0 19 0 0 0 0 19 0 0 21 0 0 0 0 0 20 0 0 0 0 0 0 0 0 12 
		20 0 0 0 0 0 0 0 0 0 0 0 0 0 0 0 0 0 0 0 0 0 0 0 16 0 0 0 0 0 0 0 0 0 0 0 0 0 0 25 25 0 0 0 23 
		21 0 0 0 0 0 0 0 0 0 0 0 0 0 0 0 0 0 0 0 0 0 0 0 0 0 0 0 0 0 0 0 0 0 0 0 0 0 0 0 0 0 0 18 0 
		22 0 0 0 0 0 0 0 0 0 0 0 0 0 0 0 0 0 0 0 0 0 0 0 0 23 0 0 0 25 0 0 18 0 0 0 0 22 0 0 0 0 0 0 19 
		23 0 0 0 0 0 0 0 0 0 0 0 0 0 0 0 0 0 0 0 0 0 0 0 0 0 0 0 0 0 0 0 10 0 0 0 0 0 0 0 0 0 0 0 0 
		24 0 0 0 0 0 0 0 0 0 0 0 0 0 0 0 0 0 0 0 0 0 0 0 0 0 0 0 0 0 0 16 18 0 0 0 0 0 0 0 0 0 0 0 0 
		25 0 0 0 0 0 0 0 0 0 0 0 0 0 0 0 0 0 0 0 0 0 0 0 0 0 0 0 0 17 0 0 0 0 0 0 0 0 15 0 10 0 0 10 14 
		26 0 0 0 0 0 0 0 0 0 0 0 0 0 0 0 0 0 0 0 0 0 0 0 0 0 0 0 0 0 25 0 0 0 13 0 0 0 0 0 0 10 0 10 0 
		27 0 0 0 0 0 0 0 0 0 0 0 0 0 0 0 0 0 0 0 0 0 0 0 0 0 0 0 0 0 0 0 0 0 0 0 0 0 0 0 0 0 0 0 0 
		28 0 0 0 0 0 0 0 0 0 0 0 0 0 0 0 0 0 0 0 0 0 0 0 0 0 0 0 0 0 0 0 0 0 0 0 0 0 0 0 0 0 0 0 0 
		29 0 0 0 0 0 0 0 0 0 0 0 0 0 0 0 0 0 0 0 0 0 0 0 0 0 0 0 0 0 0 0 0 23 0 0 0 0 0 0 0 0 0 0 0 
		30 0 0 0 0 0 0 0 0 0 0 0 0 0 0 0 0 0 0 0 0 0 0 0 0 0 0 0 0 0 0 0 0 0 0 0 0 0 19 15 25 11 0 0 12 
		31 0 0 0 0 0 0 0 0 0 0 0 0 0 0 0 0 0 0 0 0 0 0 0 0 0 0 0 0 0 0 0 0 11 0 0 0 0 0 0 0 0 0 0 0 
		32 0 0 0 0 0 0 0 0 0 0 0 0 0 0 0 0 0 0 0 0 0 0 0 0 0 0 0 0 0 0 0 0 0 0 0 0 0 12 0 0 0 0 0 0 
		33 0 0 0 0 0 0 0 0 0 0 0 0 0 0 0 0 0 0 0 0 0 0 0 0 0 0 0 0 0 0 0 0 0 0 0 0 0 0 0 0 0 0 0 0 
		34 0 0 0 0 0 0 0 0 0 0 0 0 0 0 0 0 0 0 0 0 0 0 0 0 0 0 0 0 0 0 0 0 0 0 0 0 0 0 0 0 0 0 0 0 
		35 0 0 0 0 0 0 0 0 0 0 0 0 0 0 0 0 0 0 0 0 0 0 0 0 0 0 0 0 0 0 0 0 0 0 0 0 0 0 0 0 0 0 0 0 
		36 0 0 0 0 0 0 0 0 0 0 0 0 0 0 0 0 0 0 0 0 0 0 0 0 0 0 0 0 0 0 0 0 0 0 0 0 0 11 0 0 0 0 0 0 
		37 0 0 0 0 0 0 0 0 0 0 0 0 0 0 0 0 0 0 0 0 0 0 0 0 0 0 0 0 0 0 0 0 0 0 0 0 0 0 11 0 0 0 0 0 
		38 0 0 0 0 0 0 0 0 0 0 0 0 0 0 0 0 0 0 0 0 0 0 0 0 0 0 0 0 0 0 0 0 0 0 0 0 0 0 0 16 0 0 0 21 
		39 0 0 0 0 0 0 0 0 0 0 0 0 0 0 0 0 0 0 0 0 0 0 0 0 0 0 0 0 0 0 0 0 0 0 0 0 0 0 0 0 0 0 0 0 
		40 0 0 0 0 0 0 0 0 0 0 0 0 0 0 0 0 0 0 0 0 0 0 0 0 0 0 0 0 0 0 0 0 0 0 0 0 0 0 0 0 0 0 0 0 
		41 0 0 0 0 0 0 0 0 0 0 0 0 0 0 0 0 0 0 0 0 0 0 0 0 0 0 0 0 0 0 0 0 0 0 0 0 0 0 0 0 0 0 0 0 
		42 0 0 0 0 0 0 0 0 0 0 0 0 0 0 0 0 0 0 0 0 0 0 0 0 0 0 0 0 0 0 0 0 0 0 0 0 0 0 0 0 0 0 0 0 
		43 0 0 0 0 0 0 0 0 0 0 0 0 0 0 0 0 0 0 0 0 0 0 0 0 0 0 0 0 0 0 0 0 0 0 0 0 0 0 0 0 0 0 0 0 
;
param bs:	 0 1 2 3 4 5 6 7 8 9 10 11 12 13 14 15 16 17 18 19 20 21 22 23 24 25 26 27 28 29 30 31 32 33 34 35 36 37 38 39 40 41 42 43 44 45 46 47 48 49 50 51 52 53 54 55 56 57 58 59 60 61 62 63 64 65 66 67 68 69 70 71 72 73 74 75 76 77 78 79 80 81 82 83 84 85 86 87 88 89 90 91 := 
		0 0 0 0 40 0 0 31 0 0 37 0 0 0 21 0 0 0 0 0 0 0 0 0 0 35 0 38 32 0 0 0 0 0 0 0 23 25 0 31 0 0 0 37 0 0 0 0 0 0 0 0 0 0 0 0 21 31 0 28 0 0 28 40 0 0 0 0 0 0 34 0 0 0 29 0 0 0 0 0 0 0 0 0 0 0 0 0 0 0 0 0 0 
		1 0 0 0 0 0 0 0 0 0 0 0 0 0 0 0 0 0 0 0 0 0 0 0 0 0 0 0 0 26 0 0 0 0 0 0 36 0 0 0 0 0 0 0 0 0 0 0 0 0 0 0 0 0 0 23 0 0 0 0 0 0 0 0 0 31 0 0 0 0 0 0 0 0 0 0 0 28 0 0 0 0 0 0 0 0 0 24 0 0 0 0 0 
		2 0 0 0 0 0 0 0 0 0 0 0 0 29 0 0 0 0 0 0 39 0 0 0 0 0 0 0 23 0 0 0 0 0 0 0 0 30 21 0 0 0 0 0 0 0 0 0 0 0 0 0 0 0 0 0 0 0 0 0 0 0 0 0 38 0 0 0 0 27 0 0 0 0 0 0 0 23 0 0 0 0 0 0 31 0 0 0 0 0 0 0 0 
		3 40 0 0 0 0 29 0 0 0 24 0 0 0 0 0 0 0 0 0 0 21 0 0 27 0 0 0 0 0 0 0 0 20 0 0 0 0 0 0 32 0 0 0 0 0 0 0 0 0 0 28 0 0 26 0 0 0 0 31 0 0 0 0 0 0 0 0 0 0 30 0 0 0 0 0 0 0 0 0 0 0 0 21 0 0 0 0 0 0 0 0 0 
		4 0 0 0 0 0 0 0 0 0 0 0 0 0 0 0 0 0 0 0 0 0 0 0 0 0 0 0 20 0 0 0 0 0 0 0 0 0 0 0 0 0 0 0 0 0 0 0 0 0 0 0 0 20 0 0 0 0 21 0 0 0 0 0 0 0 35 0 0 0 0 25 0 0 0 0 0 0 0 0 0 0 0 0 0 0 0 0 0 0 0 0 0 
		5 0 0 0 29 0 0 27 0 0 0 0 0 0 39 0 0 0 0 0 0 0 0 0 0 0 0 0 0 0 34 0 0 0 0 21 0 0 0 39 20 0 0 0 0 0 0 0 37 32 0 0 0 0 0 33 31 0 0 0 0 0 0 0 0 0 0 0 0 39 25 0 0 0 0 0 31 0 30 0 0 0 0 0 0 0 34 0 0 0 0 0 0 
		6 31 0 0 0 0 27 0 0 0 0 0 0 0 0 0 0 0 0 0 0 0 0 0 0 0 0 0 0 0 0 0 0 0 0 0 0 0 0 0 29 20 0 20 0 0 0 0 0 0 0 0 0 0 0 0 0 0 0 0 0 0 0 0 0 0 0 0 0 0 0 0 0 0 0 0 0 0 0 0 0 0 0 0 0 0 0 0 0 0 0 0 0 
		7 0 0 0 0 0 0 0 0 0 0 0 0 0 0 0 0 0 0 39 0 0 0 0 0 0 0 0 0 0 0 0 0 26 0 0 0 22 0 0 0 0 38 0 0 0 0 0 0 0 0 0 0 0 26 0 0 29 0 0 28 0 0 0 0 0 0 0 0 0 0 0 0 0 0 0 0 0 0 0 0 0 0 0 0 0 0 0 38 0 0 0 0 
		8 0 0 0 0 0 0 0 0 0 0 0 0 0 39 0 0 40 0 0 0 0 0 29 0 0 0 0 0 0 0 0 0 0 0 0 0 0 0 33 0 0 0 0 0 31 0 0 0 0 0 0 0 0 0 0 0 0 0 0 36 0 0 0 0 0 0 0 0 0 0 0 0 0 0 0 0 0 0 0 0 0 0 0 0 0 0 0 0 0 0 0 0 
		9 37 0 0 24 0 0 0 0 0 0 0 0 0 0 0 0 0 0 0 26 0 0 25 0 0 0 0 28 0 0 0 0 0 0 0 0 21 0 0 0 0 0 0 0 0 0 0 0 38 0 0 27 0 0 0 0 0 0 0 0 21 0 0 0 0 0 0 0 0 0 0 0 0 0 0 0 0 26 22 0 0 32 0 0 23 0 0 0 0 0 0 0 
		10 0 0 0 0 0 0 0 0 0 0 0 35 0 29 0 0 0 0 0 0 0 0 0 0 0 0 0 0 0 0 0 39 0 29 0 0 0 0 0 0 0 0 0 0 0 0 0 28 0 0 0 0 39 0 0 0 0 0 0 0 0 0 0 40 0 0 0 0 0 0 0 0 0 0 0 0 0 0 0 0 0 0 0 0 0 0 0 0 0 0 37 0 
		11 0 0 0 0 0 0 0 0 0 0 35 0 0 0 0 0 28 0 0 0 24 0 0 0 0 0 0 0 0 0 0 0 0 0 0 0 0 0 0 0 0 0 0 0 0 0 0 0 22 0 0 0 36 0 0 0 0 35 0 0 0 0 0 0 0 23 0 0 0 0 0 0 0 0 0 0 0 0 0 0 0 0 0 0 0 0 0 0 0 0 0 0 
		12 0 0 29 0 0 0 0 0 0 0 0 0 0 0 0 0 0 0 0 0 0 0 0 0 23 0 0 0 0 0 0 0 0 0 0 0 33 0 0 0 0 0 0 0 0 0 0 0 39 0 0 0 0 0 0 0 0 0 0 0 0 0 0 39 0 0 0 0 0 0 0 0 0 38 0 0 0 0 0 0 0 0 0 37 22 38 0 0 0 0 0 0 
		13 21 0 0 0 0 39 0 0 39 0 29 0 0 0 0 0 0 0 0 0 32 0 0 0 0 0 0 0 30 0 0 0 0 0 0 0 0 0 0 0 0 0 0 0 32 31 0 0 0 0 0 0 0 0 0 34 0 0 0 0 0 22 0 0 29 0 0 38 0 0 0 0 0 0 0 0 0 0 0 0 0 0 0 0 0 0 0 0 40 0 34 0 
		14 0 0 0 0 0 0 0 0 0 0 0 0 0 0 0 0 0 0 0 0 0 0 39 0 0 0 21 0 0 0 0 0 0 0 0 0 0 0 0 0 0 0 0 0 0 0 0 0 0 0 0 0 0 33 0 0 0 0 0 0 0 0 0 0 0 0 0 0 0 0 0 0 0 32 0 0 0 0 0 0 0 0 0 0 32 0 0 24 0 0 0 25 
		15 0 0 0 0 0 0 0 0 0 0 0 0 0 0 0 0 0 0 0 0 28 0 0 0 0 0 29 0 0 0 0 0 23 0 20 0 0 0 0 22 0 0 37 0 0 0 0 0 0 0 0 0 0 0 0 0 0 0 0 0 0 0 0 0 0 0 0 0 0 0 0 0 0 0 0 0 0 0 0 0 0 0 0 0 0 0 0 0 27 0 0 0 
		16 0 0 0 0 0 0 0 0 40 0 0 28 0 0 0 0 0 0 39 0 0 0 0 0 0 33 0 0 0 30 0 39 0 0 36 0 0 0 0 0 0 0 0 0 0 0 0 0 37 0 0 0 0 37 0 0 0 0 0 0 28 0 0 0 0 0 0 0 0 0 0 0 0 0 35 0 0 0 0 0 0 0 0 0 0 0 0 0 0 0 24 0 
		17 0 0 0 0 0 0 0 0 0 0 0 0 0 0 0 0 0 0 0 0 0 0 0 0 0 0 0 0 0 30 0 0 0 0 0 0 0 0 22 0 0 0 23 0 0 0 0 0 0 0 0 0 0 23 0 0 0 0 0 0 0 0 0 27 0 0 0 0 20 0 0 35 0 0 0 0 26 0 0 0 24 0 0 27 0 40 0 0 0 0 0 0 
		18 0 0 0 0 0 0 0 39 0 0 0 0 0 0 0 0 39 0 0 0 28 0 0 0 0 0 0 0 0 0 0 0 0 0 0 0 0 0 0 31 0 22 0 38 0 0 0 0 0 35 0 0 0 0 40 0 25 0 0 0 0 0 0 22 0 0 0 27 0 0 0 0 0 0 0 0 0 0 38 0 0 0 0 0 0 0 0 0 0 0 0 39 
		19 0 0 39 0 0 0 0 0 0 26 0 0 0 0 0 0 0 0 0 0 0 0 0 0 0 39 30 0 0 0 0 0 0 0 0 0 32 0 0 0 0 0 0 0 0 0 0 0 0 0 0 0 0 33 0 0 39 0 0 0 36 0 0 0 0 0 0 0 0 0 0 0 0 23 0 0 0 24 0 0 0 25 27 0 0 0 0 30 0 0 0 0 
		20 0 0 0 21 0 0 0 0 0 0 0 24 0 32 0 28 0 0 28 0 0 0 0 0 0 0 0 0 0 0 0 0 21 0 0 0 0 0 0 0 30 0 0 0 0 0 0 0 0 0 0 0 0 0 0 25 0 0 40 0 0 0 27 38 0 0 0 0 25 0 0 35 0 0 0 0 0 0 20 0 0 0 0 0 0 0 0 0 0 0 0 0 
		21 0 0 0 0 0 0 0 0 0 0 0 0 0 0 0 0 0 0 0 0 0 0 0 0 0 0 0 0 0 0 26 0 0 0 0 0 37 33 0 0 0 0 0 0 0 0 0 0 0 0 0 0 0 0 0 0 0 0 0 0 0 0 33 0 0 0 30 0 34 0 0 0 0 0 0 0 0 0 0 0 0 26 0 27 0 0 0 0 26 0 33 0 
		22 0 0 0 0 0 0 0 0 29 25 0 0 0 0 39 0 0 0 0 0 0 0 0 0 0 0 0 0 0 0 0 0 0 0 0 0 0 0 0 0 0 0 0 0 0 0 0 0 0 0 37 20 0 0 0 0 0 0 32 0 0 0 0 0 0 0 0 0 0 0 0 0 0 0 0 0 0 0 0 0 0 0 0 0 0 38 0 0 34 0 0 0 
		23 0 0 0 27 0 0 0 0 0 0 0 0 0 0 0 0 0 0 0 0 0 0 0 0 22 0 0 27 0 0 0 21 0 0 0 0 0 0 37 0 0 0 0 0 0 0 0 30 0 0 0 30 0 0 0 32 0 39 0 0 0 0 28 0 0 29 0 0 0 0 0 0 0 0 0 0 0 0 0 0 0 0 0 0 0 0 34 0 0 0 0 0 
		24 35 0 0 0 0 0 0 0 0 0 0 0 23 0 0 0 0 0 0 0 0 0 0 22 0 0 0 0 0 0 0 33 0 0 0 0 0 31 0 0 0 0 0 0 0 0 0 0 0 0 0 0 0 24 26 0 0 0 0 0 27 0 0 0 0 38 0 0 0 0 0 0 0 0 0 0 36 32 0 0 0 0 0 0 29 22 0 0 0 0 0 0 
		25 0 0 0 0 0 0 0 0 0 0 0 0 0 0 0 0 33 0 0 39 0 0 0 0 0 0 0 0 0 0 0 0 0 0 0 0 0 0 0 0 0 22 0 0 0 0 0 0 0 0 0 0 32 0 0 0 0 0 24 0 0 0 0 0 0 0 0 0 34 0 0 0 0 31 33 0 38 0 0 0 0 0 0 0 38 0 0 0 0 0 0 0 
		26 38 0 0 0 0 0 0 0 0 0 0 0 0 0 21 29 0 0 0 30 0 0 0 0 0 0 0 0 0 0 31 0 21 0 0 0 29 37 0 0 0 0 0 0 38 0 0 0 0 0 0 0 0 0 0 0 21 0 0 39 0 0 0 0 0 0 0 0 0 0 0 35 0 0 0 29 0 0 0 0 0 0 0 0 0 0 0 0 0 0 0 0 
		27 32 0 23 0 20 0 0 0 0 28 0 0 0 0 0 0 0 0 0 0 0 0 0 27 0 0 0 0 0 0 0 0 0 0 31 0 0 0 0 0 0 25 0 0 0 0 0 0 0 0 0 32 0 0 31 0 20 0 0 0 0 0 0 0 0 0 36 0 36 0 0 0 28 0 0 0 0 0 0 0 0 0 0 0 31 25 31 30 0 0 0 0 
		28 0 26 0 0 0 0 0 0 0 0 0 0 0 30 0 0 0 0 0 0 0 0 0 0 0 0 0 0 0 0 0 0 0 0 34 0 0 0 0 0 0 0 0 0 0 20 0 0 0 0 28 0 0 0 0 0 0 0 0 0 0 0 0 0 38 0 0 24 0 0 0 0 0 0 0 0 0 0 0 0 0 0 0 39 0 0 0 0 0 0 0 0 
		29 0 0 0 0 0 34 0 0 0 0 0 0 0 0 0 0 30 30 0 0 0 0 0 0 0 0 0 0 0 0 0 0 0 0 0 0 0 0 0 0 26 0 0 0 0 0 0 0 0 0 29 0 0 0 0 0 0 0 0 0 0 0 0 0 0 0 0 0 0 36 0 0 0 30 0 0 0 0 0 0 0 0 0 0 0 0 0 0 0 0 0 0 
		30 0 0 0 0 0 0 0 0 0 0 0 0 0 0 0 0 0 0 0 0 0 26 0 0 0 0 31 0 0 0 0 0 0 0 34 0 0 37 0 27 0 0 0 0 0 0 0 0 0 0 0 0 0 37 0 0 0 0 0 0 0 0 0 0 0 0 0 0 0 0 0 25 0 0 0 27 39 0 0 0 0 29 36 39 0 0 0 0 0 0 0 39 
		31 0 0 0 0 0 0 0 0 0 0 39 0 0 0 0 0 39 0 0 0 0 0 0 21 33 0 0 0 0 0 0 0 0 0 0 22 0 0 0 0 27 0 35 0 0 0 0 0 0 0 0 0 26 0 0 0 0 0 0 24 0 0 22 0 0 0 0 0 0 0 0 0 0 0 0 0 0 0 0 0 0 0 0 0 0 0 0 0 0 35 0 0 
		32 0 0 0 20 0 0 0 26 0 0 0 0 0 0 0 23 0 0 0 0 21 0 0 0 0 0 21 0 0 0 0 0 0 0 0 0 0 0 40 0 0 0 21 0 0 0 0 29 38 0 0 0 0 0 0 34 0 0 0 0 0 0 0 0 28 0 0 0 0 0 0 0 0 0 0 0 0 0 20 0 0 0 0 0 0 0 0 0 0 0 0 0 
		33 0 0 0 0 0 0 0 0 0 0 29 0 0 0 0 0 0 0 0 0 0 0 0 0 0 0 0 0 0 0 0 0 0 0 0 0 37 0 0 0 0 0 39 0 0 0 0 23 0 0 0 35 32 0 0 0 0 0 0 0 0 20 0 0 0 0 0 0 0 0 0 0 0 0 0 36 0 22 0 0 0 0 0 0 31 0 0 38 0 0 0 0 
		34 0 0 0 0 0 21 0 0 0 0 0 0 0 0 0 20 36 0 0 0 0 0 0 0 0 0 0 31 34 0 34 0 0 0 0 0 0 34 22 0 0 0 0 0 0 0 0 0 0 0 0 0 21 0 32 0 0 0 0 0 0 0 0 0 0 0 0 0 0 0 0 0 36 0 0 0 0 0 39 0 0 0 0 0 0 0 0 0 0 0 0 0 
		35 23 36 0 0 0 0 0 0 0 0 0 0 0 0 0 0 0 0 0 0 0 0 0 0 0 0 0 0 0 0 0 22 0 0 0 0 0 0 32 0 0 31 0 36 0 0 0 0 0 0 0 0 0 0 0 0 0 0 0 0 0 0 0 0 0 0 0 0 0 0 0 40 0 32 0 0 20 0 0 0 0 0 0 0 0 0 0 35 0 0 0 24 
		36 25 0 30 0 0 0 0 22 0 21 0 0 33 0 0 0 0 0 0 32 0 37 0 0 0 0 29 0 0 0 0 0 0 37 0 0 0 0 0 30 0 0 0 0 0 0 0 0 32 0 0 0 0 0 0 0 0 0 28 0 0 0 0 0 0 0 30 0 0 0 0 39 0 0 0 0 0 0 0 0 0 0 0 0 0 0 0 34 0 0 0 22 
		37 0 0 21 0 0 0 0 0 0 0 0 0 0 0 0 0 0 0 0 0 0 33 0 0 31 0 37 0 0 0 37 0 0 0 34 0 0 0 0 31 33 0 26 0 0 0 0 0 0 38 0 0 0 0 0 0 22 0 0 0 0 0 0 0 0 32 0 0 0 0 0 0 0 39 0 0 0 0 0 0 0 0 0 0 0 38 0 0 0 0 0 0 
		38 31 0 0 0 0 39 0 0 33 0 0 0 0 0 0 0 0 22 0 0 0 0 0 37 0 0 0 0 0 0 0 0 40 0 22 32 0 0 0 0 30 0 0 23 0 0 0 0 26 0 0 0 0 0 20 0 0 0 0 0 0 0 0 0 0 0 0 0 34 0 0 0 0 35 0 0 0 0 0 0 0 0 0 0 0 0 0 0 25 0 30 0 
		39 0 0 0 32 0 20 29 0 0 0 0 0 0 0 0 22 0 0 31 0 0 0 0 0 0 0 0 0 0 0 27 0 0 0 0 0 30 31 0 0 0 0 0 0 0 0 0 0 0 29 0 0 0 0 0 0 22 0 0 0 0 0 39 0 0 0 0 0 0 0 0 0 0 0 0 0 36 0 0 0 0 0 20 0 0 0 0 0 0 0 0 27 
		40 0 0 0 0 0 0 20 0 0 0 0 0 0 0 0 0 0 0 0 0 30 0 0 0 0 0 0 0 0 26 0 27 0 0 0 0 0 33 30 0 0 0 0 0 0 0 24 0 0 24 0 22 0 0 0 0 0 0 0 0 0 0 0 0 34 36 0 0 0 22 0 35 0 0 0 0 34 0 0 0 0 0 0 0 0 31 0 0 24 0 0 0 
		41 0 0 0 0 0 0 0 38 0 0 0 0 0 0 0 0 0 0 22 0 0 0 0 0 0 22 0 25 0 0 0 0 0 0 0 31 0 0 0 0 0 0 39 24 0 0 0 0 0 32 0 0 0 0 0 0 0 0 0 0 0 0 0 0 0 0 0 0 0 0 0 0 0 0 0 0 31 0 0 0 0 0 36 33 22 0 0 0 0 0 0 0 
		42 37 0 0 0 0 0 20 0 0 0 0 0 0 0 0 37 0 23 0 0 0 0 0 0 0 0 0 0 0 0 0 35 21 39 0 0 0 26 0 0 0 39 0 24 0 0 0 23 31 36 0 0 0 0 0 0 0 0 0 0 0 0 0 0 0 0 0 0 0 0 0 0 37 0 0 20 0 0 0 0 0 0 0 0 0 0 0 0 0 0 0 22 
		43 0 0 0 0 0 0 0 0 0 0 0 0 0 0 0 0 0 0 38 0 0 0 0 0 0 0 0 0 0 0 0 0 0 0 0 36 0 0 23 0 0 24 24 0 0 0 27 0 0 0 0 0 0 0 32 0 0 0 0 0 32 0 0 0 0 20 0 0 0 0 0 40 0 0 25 0 20 0 0 0 0 0 0 0 0 0 0 0 0 0 0 27 
		44 0 0 0 0 0 0 0 0 31 0 0 0 0 32 0 0 0 0 0 0 0 0 0 0 0 0 38 0 0 0 0 0 0 0 0 0 0 0 0 0 0 0 0 0 0 0 0 0 0 35 22 0 0 0 0 0 0 0 35 0 0 0 25 0 0 0 0 0 0 26 0 0 0 0 0 0 0 0 33 0 0 0 0 0 0 0 0 0 30 0 0 39 
		45 0 0 0 0 0 0 0 0 0 0 0 0 0 31 0 0 0 0 0 0 0 0 0 0 0 0 0 0 20 0 0 0 0 0 0 0 0 0 0 0 0 0 0 0 0 0 0 0 0 0 0 0 0 0 0 0 0 0 0 36 0 34 0 0 0 0 0 0 21 0 0 0 0 0 0 0 0 0 0 0 23 0 0 0 0 25 0 0 0 0 0 0 
		46 0 0 0 0 0 0 0 0 0 0 0 0 0 0 0 0 0 0 0 0 0 0 0 0 0 0 0 0 0 0 0 0 0 0 0 0 0 0 0 0 24 0 0 27 0 0 0 0 0 0 0 0 0 0 0 0 0 0 0 0 0 0 0 0 0 40 0 0 0 0 34 0 0 0 0 0 0 0 0 0 0 0 0 0 0 0 0 0 0 0 0 0 
		47 0 0 0 0 0 37 0 0 0 0 28 0 0 0 0 0 0 0 0 0 0 0 0 30 0 0 0 0 0 0 0 0 29 23 0 0 0 0 0 0 0 0 23 0 0 0 0 0 0 0 0 0 0 0 0 0 0 0 0 0 0 0 0 0 0 0 0 0 0 0 0 0 0 0 0 0 0 0 0 0 0 0 0 0 0 33 0 0 0 0 0 0 
		48 0 0 0 0 0 32 0 0 0 38 0 22 39 0 0 0 37 0 0 0 0 0 0 0 0 0 0 0 0 0 0 0 38 0 0 0 32 0 26 0 0 0 31 0 0 0 0 0 0 0 0 0 0 34 0 0 0 0 0 0 0 0 0 0 0 0 0 0 27 0 0 0 0 38 0 0 34 28 0 0 0 28 0 0 0 0 0 35 40 34 0 24 
		49 0 0 0 0 0 0 0 0 0 0 0 0 0 0 0 0 0 0 35 0 0 0 0 0 0 0 0 0 0 0 0 0 0 0 0 0 0 38 0 29 24 32 36 0 35 0 0 0 0 0 0 0 0 0 23 0 29 0 0 0 0 0 36 0 0 0 0 0 0 0 0 0 0 24 0 20 0 31 0 29 0 0 0 0 0 0 0 0 30 35 0 0 
		50 0 0 0 28 0 0 0 0 0 0 0 0 0 0 0 0 0 0 0 0 0 0 37 0 0 0 0 0 28 29 0 0 0 0 0 0 0 0 0 0 0 0 0 0 22 0 0 0 0 0 0 0 0 0 0 21 0 0 0 0 0 0 0 0 0 0 0 0 0 0 0 0 0 0 0 0 0 0 0 0 0 0 0 0 0 26 0 0 0 0 0 0 
		51 0 0 0 0 0 0 0 0 0 27 0 0 0 0 0 0 0 0 0 0 0 0 20 30 0 0 0 32 0 0 0 0 0 35 0 0 0 0 0 0 22 0 0 0 0 0 0 0 0 0 0 0 0 37 0 0 0 0 0 0 0 0 0 0 0 21 0 0 28 0 0 0 0 0 26 0 0 22 0 0 0 0 0 0 0 0 38 0 36 0 0 0 
		52 0 0 0 0 20 0 0 0 0 0 39 36 0 0 0 0 0 0 0 0 0 0 0 0 0 32 0 0 0 0 0 26 0 32 21 0 0 0 0 0 0 0 0 0 0 0 0 0 0 0 0 0 0 0 0 0 0 0 23 0 0 0 0 0 0 40 0 0 0 0 28 0 0 0 0 0 0 0 0 0 0 0 0 0 0 0 0 0 0 0 0 0 
		53 0 0 0 26 0 0 0 26 0 0 0 0 0 0 33 0 37 23 0 33 0 0 0 0 24 0 0 0 0 0 37 0 0 0 0 0 0 0 0 0 0 0 0 0 0 0 0 0 34 0 0 37 0 0 0 0 0 0 0 0 0 0 24 0 0 0 0 0 0 0 0 0 0 0 0 0 0 0 0 0 0 0 0 24 0 0 0 22 0 0 0 0 
		54 0 23 0 0 0 33 0 0 0 0 0 0 0 0 0 0 0 0 40 0 0 0 0 0 26 0 0 31 0 0 0 0 0 0 32 0 0 0 20 0 0 0 0 32 0 0 0 0 0 23 0 0 0 0 0 0 40 0 28 0 0 0 27 28 23 0 22 0 0 0 0 35 0 0 0 31 0 28 0 0 0 0 0 0 37 0 21 0 0 0 0 0 
		55 21 0 0 0 0 31 0 0 0 0 0 0 0 34 0 0 0 0 0 0 25 0 0 32 0 0 0 0 0 0 0 0 34 0 0 0 0 0 0 0 0 0 0 0 0 0 0 0 0 0 21 0 0 0 0 0 0 0 26 0 0 37 0 39 0 0 0 0 0 0 0 0 0 0 0 31 0 0 0 0 0 0 0 0 0 0 0 0 0 0 0 0 
		56 31 0 0 0 0 0 0 29 0 0 0 0 0 0 0 0 0 0 25 39 0 0 0 0 0 0 21 20 0 0 0 0 0 0 0 0 0 22 0 22 0 0 0 0 0 0 0 0 0 29 0 0 0 0 40 0 0 0 0 0 0 0 0 25 0 0 0 0 0 0 0 0 0 31 0 25 39 0 0 0 0 0 0 0 0 0 0 0 0 0 0 0 
		57 0 0 0 0 21 0 0 0 0 0 0 35 0 0 0 0 0 0 0 0 0 0 0 39 0 0 0 0 0 0 0 0 0 0 0 0 0 0 0 0 0 0 0 0 0 0 0 0 0 0 0 0 0 0 0 0 0 0 0 0 0 0 0 0 0 0 29 0 0 0 0 0 0 0 0 0 23 0 0 0 0 0 0 0 0 0 28 0 0 0 0 0 
		58 28 0 0 31 0 0 0 0 0 0 0 0 0 0 0 0 0 0 0 0 40 0 32 0 0 24 0 0 0 0 0 0 0 0 0 0 28 0 0 0 0 0 0 0 35 0 0 0 0 0 0 0 23 0 28 26 0 0 0 27 0 0 0 0 0 0 0 34 0 0 0 0 0 0 0 0 0 0 0 0 0 0 0 0 0 0 0 0 0 0 0 32 
		59 0 0 0 0 0 0 0 28 36 0 0 0 0 0 0 0 0 0 0 0 0 0 0 0 0 0 39 0 0 0 0 24 0 0 0 0 0 0 0 0 0 0 0 0 0 36 0 0 0 0 0 0 0 0 0 0 0 0 27 0 0 0 21 0 0 27 0 27 0 0 33 0 29 0 37 0 0 0 0 0 0 0 0 0 37 23 0 0 0 0 0 0 
		60 0 0 0 0 0 0 0 0 0 21 0 0 0 0 0 0 28 0 0 36 0 0 0 0 27 0 0 0 0 0 0 0 0 0 0 0 0 0 0 0 0 0 0 32 0 0 0 0 0 0 0 0 0 0 0 0 0 0 0 0 0 0 0 0 0 29 0 0 0 32 0 0 0 0 0 0 0 0 0 0 38 0 0 0 0 0 0 0 0 29 0 0 
		61 28 0 0 0 0 0 0 0 0 0 0 0 0 22 0 0 0 0 0 0 0 0 0 0 0 0 0 0 0 0 0 0 0 20 0 0 0 0 0 0 0 0 0 0 0 34 0 0 0 0 0 0 0 0 0 37 0 0 0 0 0 0 0 0 0 30 0 0 0 0 0 0 0 0 0 0 0 0 0 0 0 0 0 0 0 0 0 0 0 0 0 36 
		62 40 0 0 0 0 0 0 0 0 0 0 0 0 0 0 0 0 0 0 0 27 33 0 28 0 0 0 0 0 0 0 22 0 0 0 0 0 0 0 39 0 0 0 0 25 0 0 0 0 36 0 0 0 24 27 0 0 0 0 21 0 0 0 0 24 0 0 35 0 40 0 36 0 0 0 0 0 0 35 0 0 0 0 0 24 36 0 0 0 0 0 25 
		63 0 0 38 0 0 0 0 0 0 0 40 0 39 0 0 0 0 27 22 0 38 0 0 0 0 0 0 0 0 0 0 0 0 0 0 0 0 0 0 0 0 0 0 0 0 0 0 0 0 0 0 0 0 0 28 39 25 0 0 0 0 0 0 0 0 0 0 0 0 0 0 0 0 0 0 34 0 0 0 0 28 0 0 0 0 0 0 0 0 0 0 0 
		64 0 31 0 0 0 0 0 0 0 0 0 0 0 29 0 0 0 0 0 0 0 0 0 0 0 0 0 0 38 0 0 0 28 0 0 0 0 0 0 0 34 0 0 0 0 0 0 0 0 0 0 0 0 0 23 0 0 0 0 0 0 0 24 0 0 0 0 31 0 0 0 0 0 0 0 0 29 0 0 0 0 0 0 31 0 0 0 0 36 0 0 0 
		65 0 0 0 0 35 0 0 0 0 0 0 23 0 0 0 0 0 0 0 0 0 0 0 29 38 0 0 0 0 0 0 0 0 0 0 0 0 32 0 0 36 0 0 20 0 0 40 0 0 0 0 21 40 0 0 0 0 0 0 27 29 30 0 0 0 0 0 0 0 0 27 0 0 26 0 0 0 0 0 0 0 0 0 0 0 0 0 0 0 38 0 0 
		66 0 0 0 0 0 0 0 0 0 0 0 0 0 0 0 0 0 0 0 0 0 30 0 0 0 0 0 36 0 0 0 0 0 0 0 0 30 0 0 0 0 0 0 0 0 0 0 0 0 0 0 0 0 0 22 0 0 29 0 0 0 0 0 0 0 0 0 0 0 0 32 0 0 32 0 0 0 0 0 0 0 0 0 0 0 24 0 0 0 0 0 0 
		67 0 0 0 0 0 0 0 0 0 0 0 0 0 38 0 0 0 0 27 0 0 0 0 0 0 0 0 0 24 0 0 0 0 0 0 0 0 0 0 0 0 0 0 0 0 0 0 0 0 0 0 0 0 0 0 0 0 0 34 27 0 0 35 0 31 0 0 0 0 0 0 0 0 0 0 0 0 0 26 21 0 0 0 0 0 38 0 0 0 0 36 0 
		68 0 0 27 0 0 39 0 0 0 0 0 0 0 0 0 0 0 20 0 0 25 34 0 0 0 34 0 36 0 0 0 0 0 0 0 0 0 0 34 0 0 0 0 0 0 21 0 0 27 0 0 28 0 0 0 0 0 0 0 0 0 0 0 0 0 0 0 0 0 0 0 0 0 0 0 0 0 0 28 0 0 0 0 0 0 0 0 0 0 0 0 0 
		69 34 0 0 30 0 25 0 0 0 0 0 0 0 0 0 0 0 0 0 0 0 0 0 0 0 0 0 0 0 36 0 0 0 0 0 0 0 0 0 0 22 0 0 0 26 0 0 0 0 0 0 0 0 0 0 0 0 0 0 0 32 0 40 0 0 0 0 0 0 0 0 0 0 0 0 0 0 0 0 0 0 0 0 0 0 0 0 0 0 0 0 24 
		70 0 0 0 0 25 0 0 0 0 0 0 0 0 0 0 0 0 0 0 0 0 0 0 0 0 0 0 0 0 0 0 0 0 0 0 0 0 0 0 0 0 0 0 0 0 0 34 0 0 0 0 0 28 0 0 0 0 0 0 33 0 0 0 0 0 27 32 0 0 0 0 0 0 0 0 0 0 0 0 0 0 0 0 0 0 0 0 0 0 0 0 0 
		71 0 0 0 0 0 0 0 0 0 0 0 0 0 0 0 0 0 35 0 0 35 0 0 0 0 0 35 0 0 0 25 0 0 0 0 40 39 0 0 0 35 0 0 40 0 0 0 0 0 0 0 0 0 0 35 0 0 0 0 0 0 0 36 0 0 0 0 0 0 0 0 0 0 0 0 0 0 0 0 0 0 0 0 32 0 0 0 0 0 0 0 0 
		72 0 0 0 0 0 0 0 0 0 0 0 0 0 0 0 0 0 0 0 0 0 0 0 0 0 0 0 28 0 0 0 0 0 0 36 0 0 0 0 0 0 0 37 0 0 0 0 0 0 0 0 0 0 0 0 0 0 0 0 29 0 0 0 0 0 0 0 0 0 0 0 0 0 0 0 0 0 0 0 0 0 0 0 0 0 0 38 0 0 0 22 0 
		73 29 0 0 0 0 0 0 0 0 0 0 0 38 0 32 0 0 0 0 23 0 0 0 0 0 31 0 0 0 30 0 0 0 0 0 32 0 39 35 0 0 0 0 0 0 0 0 0 38 24 0 0 0 0 0 0 31 0 0 0 0 0 0 0 0 26 32 0 0 0 0 0 0 0 0 0 0 0 0 0 22 0 0 0 0 0 0 0 0 0 0 40 
		74 0 0 0 0 0 0 0 0 0 0 0 0 0 0 0 0 35 0 0 0 0 0 0 0 0 33 0 0 0 0 0 0 0 0 0 0 0 0 0 0 0 0 0 25 0 0 0 0 0 0 0 26 0 0 0 0 0 0 0 37 0 0 0 0 0 0 0 0 0 0 0 0 0 0 0 0 0 0 0 0 0 0 0 0 0 0 0 0 0 0 0 0 
		75 0 0 0 0 0 31 0 0 0 0 0 0 0 0 0 0 0 0 0 0 0 0 0 0 0 0 29 0 0 0 27 0 0 36 0 0 0 0 0 0 0 0 20 0 0 0 0 0 0 20 0 0 0 0 31 31 25 0 0 0 0 0 0 34 0 0 0 0 0 0 0 0 0 0 0 0 0 0 0 0 26 38 0 31 0 0 0 0 0 0 0 0 
		76 0 28 23 0 0 0 0 0 0 0 0 0 0 0 0 0 0 26 0 0 0 0 0 0 36 38 0 0 0 0 39 0 0 0 0 20 0 0 0 36 34 31 0 20 0 0 0 0 34 0 0 0 0 0 0 0 39 23 0 0 0 0 0 0 29 0 0 0 0 0 0 0 0 0 0 0 0 0 0 0 37 25 0 0 0 0 0 0 0 0 0 0 
		77 0 0 0 0 0 30 0 0 0 26 0 0 0 0 0 0 0 0 0 24 0 0 0 0 32 0 0 0 0 0 0 0 0 22 0 0 0 0 0 0 0 0 0 0 0 0 0 0 28 31 0 22 0 0 28 0 0 0 0 0 0 0 0 0 0 0 0 0 0 0 0 0 0 0 0 0 0 0 0 0 0 35 0 0 0 0 0 0 0 0 0 0 
		78 0 0 0 0 0 0 0 0 0 22 0 0 0 0 0 0 0 0 38 0 20 0 0 0 0 0 0 0 0 0 0 0 20 0 39 0 0 0 0 0 0 0 0 0 33 0 0 0 0 0 0 0 0 0 0 0 0 0 0 0 0 0 35 0 0 0 0 26 28 0 0 0 0 0 0 0 0 0 0 0 0 0 0 0 0 0 0 0 0 0 0 0 
		79 0 0 0 0 0 0 0 0 0 0 0 0 0 0 0 0 0 0 0 0 0 0 0 0 0 0 0 0 0 0 0 0 0 0 0 0 0 0 0 0 0 0 0 0 0 0 0 0 0 29 0 0 0 0 0 0 0 0 0 0 0 0 0 0 0 0 0 21 0 0 0 0 0 0 0 0 0 0 0 0 0 0 0 0 0 0 0 0 0 0 0 0 
		80 0 0 0 0 0 0 0 0 0 0 0 0 0 0 0 0 0 24 0 0 0 0 0 0 0 0 0 0 0 0 0 0 0 0 0 0 0 0 0 0 0 0 0 0 0 23 0 0 0 0 0 0 0 0 0 0 0 0 0 0 38 0 0 28 0 0 0 0 0 0 0 0 0 22 0 26 37 0 0 0 0 0 0 0 0 0 0 39 0 32 0 0 
		81 0 0 0 0 0 0 0 0 0 32 0 0 0 0 0 0 0 0 0 25 0 26 0 0 0 0 0 0 0 0 29 0 0 0 0 0 0 0 0 0 0 0 0 0 0 0 0 0 28 0 0 0 0 0 0 0 0 0 0 0 0 0 0 0 0 0 0 0 0 0 0 0 0 0 0 38 25 35 0 0 0 0 0 0 0 0 0 0 0 0 0 0 
		82 0 0 0 21 0 0 0 0 0 0 0 0 0 0 0 0 0 0 0 27 0 0 0 0 0 0 0 0 0 0 36 0 0 0 0 0 0 0 0 20 0 36 0 0 0 0 0 0 0 0 0 0 0 0 0 0 0 0 0 0 0 0 0 0 0 0 0 0 0 0 0 0 0 0 0 0 0 0 0 0 0 0 0 0 0 0 0 0 0 0 0 0 
		83 0 0 31 0 0 0 0 0 0 0 0 0 37 0 0 0 0 27 0 0 0 27 0 0 0 0 0 0 39 0 39 0 0 0 0 0 0 0 0 0 0 33 0 0 0 0 0 0 0 0 0 0 0 24 0 0 0 0 0 0 0 0 0 0 31 0 0 0 0 0 0 32 0 0 0 31 0 0 0 0 0 0 0 0 0 0 0 0 0 37 0 0 
		84 0 0 0 0 0 0 0 0 0 23 0 0 22 0 32 0 0 0 0 0 0 0 0 0 29 38 0 31 0 0 0 0 0 31 0 0 0 0 0 0 0 22 0 0 0 0 0 0 0 0 0 0 0 0 37 0 0 0 0 37 0 0 24 0 0 0 0 0 0 0 0 0 0 0 0 0 0 0 0 0 0 0 0 0 0 0 0 0 22 0 0 0 
		85 0 0 0 0 0 34 0 0 0 0 0 0 38 0 0 0 0 40 0 0 0 0 38 0 22 0 0 25 0 0 0 0 0 0 0 0 0 38 0 0 31 0 0 0 0 25 0 33 0 0 26 0 0 0 0 0 0 0 0 23 0 0 36 0 0 0 24 38 0 0 0 0 0 0 0 0 0 0 0 0 0 0 0 0 0 0 39 0 0 0 33 0 
		86 0 24 0 0 0 0 0 0 0 0 0 0 0 0 0 0 0 0 0 0 0 0 0 34 0 0 0 31 0 0 0 0 0 0 0 0 0 0 0 0 0 0 0 0 0 0 0 0 0 0 0 38 0 0 21 0 0 28 0 0 0 0 0 0 0 0 0 0 0 0 0 0 38 0 0 0 0 0 0 0 0 0 0 0 0 39 0 0 0 0 0 0 
		87 0 0 0 0 0 0 0 38 0 0 0 0 0 0 24 0 0 0 0 30 0 0 0 0 0 0 0 30 0 0 0 0 0 38 0 35 34 0 0 0 0 0 0 0 0 0 0 0 35 0 0 0 0 22 0 0 0 0 0 0 0 0 0 0 0 0 0 0 0 0 0 0 0 0 0 0 0 0 0 0 39 0 0 0 0 0 0 0 0 0 0 0 
		88 0 0 0 0 0 0 0 0 0 0 0 0 0 40 0 27 0 0 0 0 0 26 34 0 0 0 0 0 0 0 0 0 0 0 0 0 0 0 25 0 24 0 0 0 30 0 0 0 40 30 0 36 0 0 0 0 0 0 0 0 0 0 0 0 36 0 0 0 0 0 0 0 0 0 0 0 0 0 0 0 0 0 0 0 22 0 0 0 0 0 0 0 
		89 0 0 0 0 0 0 0 0 0 0 0 0 0 0 0 0 0 0 0 0 0 0 0 0 0 0 0 0 0 0 0 35 0 0 0 0 0 0 0 0 0 0 0 0 0 0 0 0 34 35 0 0 0 0 0 0 0 0 0 0 29 0 0 0 0 38 0 0 0 0 0 0 0 0 0 0 0 0 0 0 32 0 0 37 0 0 0 0 0 0 0 0 
		90 0 0 0 0 0 0 0 0 0 0 37 0 0 34 0 0 24 0 0 0 0 33 0 0 0 0 0 0 0 0 0 0 0 0 0 0 0 0 30 0 0 0 0 0 0 0 0 0 0 0 0 0 0 0 0 0 0 0 0 0 0 0 0 0 0 0 0 36 0 0 0 0 22 0 0 0 0 0 0 0 0 0 0 0 0 33 0 0 0 0 0 0 
		91 0 0 0 0 0 0 0 0 0 0 0 0 0 0 25 0 0 0 39 0 0 0 0 0 0 0 0 0 0 0 39 0 0 0 0 24 22 0 0 27 0 0 22 27 39 0 0 0 24 0 0 0 0 0 0 0 0 0 32 0 0 36 25 0 0 0 0 0 0 24 0 0 0 40 0 0 0 0 0 0 0 0 0 0 0 0 0 0 0 0 0 0 
;
